6 1
7 1
8 1
9 0
10 2
11 4
12 3
13 4
14 2
15 0
16 4
5 11
6 14
7 10
8 11
9 13
10 11
11 13
12 10
13 14
14 13
15 13
16 13
5 24
6 23
7 24
8 24
9 23
10 23
11 21
12 23
13 22
14 23
15 21
16 24
5 34
6 33
7 34
8 34
9 34
10 32
11 31
12 30
13 31
14 32
15 33
16 32
5 41
6 44
7 42
8 44
9 42
10 44
11 43
12 40
13 44
14 43
15 40
16 40
5 52
6 51
7 53
8 52
9 53
10 53
11 54
12 51
13 54
14 54
15 53
16 51
5 64
6 64
7 61
8 63
9 64
10 63
11 64
12 60
13 62
14 63
15 64
16 63
5 70
6 71
7 70
8 72
9 73
10 73
11 73
12 71
13 74
14 70
15 74
16 70
5 82
6 80
7 83
8 83
9 84
10 83
11 82
12 82
13 81
14 82
15 82
16 83
5 94
6 92
7 90
8 91
9 91
10 92
11 90
12 91
13 90
14 93
15 90
16 91
5 102
6 104
7 101
8 104
9 103
10 101
11 104
12 100
13 103
14 104
15 101
16 102
5 112
6 113
7 114
8 111
9 112
10 110
11 113
12 112
13 111
14 112
15 111
16 111
5 121
6 123
7 122
8 120
9 124
10 122
11 122
